9261
0 0 1 0 0 0 1 0 1 1 1 0 1 1 1 0 0 1 0 0 
17 17 17 17 17 17 17 2 8 8 8 8 2 8 2 8 2 2 8 12 2 12 2 12 12 12 12 2 6 6 6 14 14 6 6 6 6 6 6 10 10 6 14 6 6 6 14 6 14 6 6 6 10 10 10 10 10 6 10 10 10 14 10 10 13 10 10 10 10 9 13 10 9 9 17 13 9 13 9 9 13 13 13 13 13 13 13 13 13 13 17 17 17 17 17 17 17 17 17 17 
